proyfinal/src/viki/013/experimentInOfficeAgust.take6.output/9a45e5a2-7053-484b-b060-a4e834c532cf.als.out
Reading from standard input... Use '--help' for help.
============================[ Problem Statistics ]=============================
|                                                                             |
|  Number of variables:         87638                                         |
|  Number of clauses:          161767                                         |
|  Parse time:                   0.04 s                                       |
|                                                                             |
============================[ Search Statistics ]==============================
| Conflicts |          ORIGINAL         |          LEARNT          | Progress |
|           |    Vars  Clauses Literals |    Limit  Clauses Lit/Cl |          |
===============================================================================
|       100 |   62008   103900   259540 |    38096      100     15 | 29.245 % |
|       250 |   62008   103900   259540 |    41906      250     24 | 29.245 % |
|       475 |   62008   103900   259540 |    46096      475     36 | 29.245 % |
|       812 |   62008   103900   259540 |    50706      812     46 | 29.245 % |
|      1318 |   62007   103856   259450 |    55777     1317     55 | 29.246 % |
|      2077 |   62007   103856   259450 |    61355     2076     58 | 29.246 % |
|      3216 |   62007   103856   259450 |    67490     3215     61 | 29.247 % |
|      4924 |   61981   103713   259138 |    74239     4282     63 | 29.276 % |
|      7486 |   61981   103713   259138 |    81663     6844     74 | 29.276 % |
|     11330 |   48847    65241   164902 |    89829    10177     85 | 44.263 % |
===============================================================================
restarts              : 52
conflicts             : 11985          (6805 /sec)
decisions             : 39535          (0.00 % random) (22447 /sec)
propagations          : 18066196       (10257628 /sec)
conflict literals     : 998513         (50.15 % deleted)
Memory used           : 32.01 MB
CPU time              : 1.76124 s

UNSATISFIABLE
